\ This file was automatically generated by Zimpl
\ set tipoAviao := {1, 2, 3};
\ set destino := {1, 2};
\ set matrizTipoAviaoDestino := tipoAviao * destino;
\ param disponibilidadeAvioes[tipoAviao] := <1> 8, <2> 15, <3> 13;
\ param custoViagem[matrizTipoAviaoDestino] :=          <1, 1> 23, <2, 1> 5, <3, 1> 1.4,          <1, 2> 58, <2, 2> 10, <3, 2> 
\ 3.8;
\ param tonelagem[tipoAviao] := <1> 45, <2> 7, <3> 4;
\ param tonelagemMaximaDestino[destino] := <1> 150, <2> 100;
\ var quantidadeAvioesPorDestino[matrizTipoAviaoDestino] >= 0;
\ minimize custos : sum <t, d> in matrizTipoAviaoDestino : quantidadeAvioesPorDestino[t, d] ;
\ subto quantidadeLimiteAvioes :      forall <t> in tipoAviao do         sum <d> in destino : quantidadeAvioesPorDestino[t, d] 
\ <= disponibilidadeAvioes[t];
\ subto tonelagemLimiteDestino:       forall <d> in destino do         sum <t> in tipoAviao : quantidadeAvioesPorDestino[t, d] 
\ * tonelagem[t] <= tonelagemMaximaDestino[d];
\Problem name: .\file.zpl
Minimize
 custos:  + quantidadeAvio@0 + quantidadeAvio@1 + quantidadeAvio@2 + quantidadeAvio@3 + quantidadeAvio@4 + quantidadeAvio@5
 
Subject to
 quantidadeLimi@0:
  + quantidadeAvio@1 + quantidadeAvio@0 <= 8
 quantidadeLimi@1:
  + quantidadeAvio@3 + quantidadeAvio@2 <= 15
 quantidadeLimi@2:
  + quantidadeAvio@5 + quantidadeAvio@4 <= 13
 tonelagemLimit@3:
  +4 quantidadeAvio@4 +7 quantidadeAvio@2 +45 quantidadeAvio@0 <= 150
 tonelagemLimit@4:
  +4 quantidadeAvio@5 +7 quantidadeAvio@3 +45 quantidadeAvio@1 <= 100
Bounds
 0 <= quantidadeAvio@0 <= +inf
 0 <= quantidadeAvio@1 <= +inf
 0 <= quantidadeAvio@2 <= +inf
 0 <= quantidadeAvio@3 <= +inf
 0 <= quantidadeAvio@4 <= +inf
 0 <= quantidadeAvio@5 <= +inf
End
